
Gurobi 10.0.1 (linux64) logging started Sun Nov 26 18:04:41 2023

Set parameter LogFile to value "ArtificialInstance/ExperimentV2/S4T5K3/AdSp/gurobi91.txt"
Gurobi Optimizer version 10.0.1 build v10.0.1rc0 (linux64)

CPU model: AMD EPYC 7H12 64-Core Processor, instruction set [SSE2|AVX|AVX2]
Thread count: 128 physical cores, 128 logical processors, using up to 32 threads

Academic license 656792 - for non-commercial use only - registered to b.___@student.vu.nl
Optimize a model with 27170 rows, 25230 columns and 97766 nonzeros
Model fingerprint: 0x84ebcea4
Variable types: 0 continuous, 25230 integer (25230 binary)
Coefficient statistics:
  Matrix range     [1e+00, 1e+00]
  Objective range  [9e-01, 2e+01]
  Bounds range     [1e+00, 1e+00]
  RHS range        [1e+00, 1e+00]
Presolve removed 10326 rows and 10119 columns
Presolve time: 0.90s
Presolved: 16844 rows, 15111 columns, 58991 nonzeros
Variable types: 0 continuous, 15111 integer (15111 binary)

Root relaxation: objective 8.457714e+01, 9077 iterations, 0.45 seconds (0.30 work units)

    Nodes    |    Current Node    |     Objective Bounds      |     Work
 Expl Unexpl |  Obj  Depth IntInf | Incumbent    BestBd   Gap | It/Node Time

     0     0   84.57714    0  243          -   84.57714      -     -    1s
H    0     0                     100.7668945   84.57714  16.1%     -    1s
H    0     0                      88.1199251   84.57714  4.02%     -    1s
     0     0   85.09953    0  359   88.11993   85.09953  3.43%     -    1s
     0     0   85.09953    0  242   88.11993   85.09953  3.43%     -    2s
H    0     0                      87.1059277   85.09953  2.30%     -    3s
     0     0   85.61056    0  241   87.10593   85.61056  1.72%     -    3s
     0     0   86.04170    0  321   87.10593   86.04170  1.22%     -    3s
     0     0   86.04170    0  184   87.10593   86.04170  1.22%     -    3s
     0     0   86.30877    0  104   87.10593   86.30877  0.92%     -    3s
     0     0   86.56146    0  102   87.10593   86.56146  0.63%     -    3s
     0     0     cutoff    0        87.10593   87.10593  0.00%     -    3s

Explored 1 nodes (27450 simplex iterations) in 3.85 seconds (2.28 work units)
Thread count was 32 (of 128 available processors)

Solution count 3: 87.1059 88.1199 100.767 

Optimal solution found (tolerance 1.00e-04)
Best objective 8.710592771568e+01, best bound 8.710592771568e+01, gap 0.0000%
